58 21 22 69 38 57 9 45 52 93 43 96 16 70 49 71 98 19 60 43 91 44 35 74 3 74 33 53 2 17 35 2 33 54 16 20 89 37 60 39 91 70 8 5 8 8 60 61 39 76 75 78 16 15 50 51 87 31 3 69 28 44 28 47 16 47 77 100 10 64 76 84 63 22 21 18 41 56 98 47 41 58 70 81 61 25 38 65 40 92 55 43 47 50 30 31 45 91 46 75 